Ge Se Ge Se Ge Se Ge Se
 1.0000000000000000
     8.5979173098785360   -0.0000000000000004    0.0000000000000000
    -0.0000000000000007   -0.0000000000006562    8.3140492686410230
     0.0000000000000000  -10.8753757901490555    0.0000000000007627
 Ge  Se  Ge  Se  Ge  Se  Ge  Se 
   4   4   4   4   4   4   4   4
Cartesian
  1.0747396637347881 -1.4110479569933974  0.4524661721643877
  3.2242189912044079 -9.4643278331565561  3.7045584621567742
  3.2242189912044084 -4.0266399380812352  2.5309784893248133
  1.0747396637347746 -6.8487358520683221  1.6260461449963806
  1.0747396637347746 -9.2847836038772886  2.1904373892698481
  3.2242189912044084 -1.5905921862724213  1.9665872450512716
  3.2242189912044079 -7.0282800813475923  8.4259743407505123
  1.0747396637347955 -3.8470957088027267  4.0450995622117505
  1.0747396637347879 -1.4110479569937255  4.6094908064848967
  3.2242189912044075 -9.4643278331568848  7.8615830964773012
  3.2242189912044079 -4.0266399380815630  6.6880031236453092
  1.0747396637347744 -6.8487358520686499  5.7830707793169074
  1.0747396637347744 -9.2847836038776173  6.3474620235903512
  3.2242189912044079 -1.5905921862727495  6.1236118793717926
  3.2242189912044079 -7.0282800813472646  4.2689497064299440
  1.0747396637347957 -3.8470957088023985 -0.1119250721087720
  5.3736983186740552 -1.4110479569933976  0.4524661721643878
  7.5231776461436750 -9.4643278331565561  3.7045584621567742
  7.5231776461436759 -4.0266399380812352  2.5309784893248133
  5.3736983186740437 -6.8487358520683221  1.6260461449963806
  5.3736983186740437 -9.2847836038772886  2.1904373892698481
  7.5231776461436759 -1.5905921862724215  1.9665872450512720
  7.5231776461436750 -7.0282800813475923  8.4259743407505123
  5.3736983186740632 -3.8470957088027262  4.0450995622117505
  5.3736983186740552 -1.4110479569937255  4.6094908064848967
  7.5231776461436741 -9.4643278331568848  7.8615830964773012
  7.5231776461436750 -4.0266399380815638  6.6880031236453092
  5.3736983186740419 -6.8487358520686508  5.7830707793169074
  5.3736983186740419 -9.2847836038776173  6.3474620235903512
  7.5231776461436750 -1.5905921862727499  6.1236118793717926
  7.5231776461436750 -7.0282800813472655  4.2689497064299440
  5.3736983186740632 -3.8470957088023989 -0.1119250721087720
