Sr Ti O 
 1.0000000000000000
     5.6706369604209721    0.0000000000000001    0.0000000000000003
    -0.0000000000000004    5.6706369604210209    0.0000000000000003
    -0.0000000000000000   -0.0000000000000001    7.6802761504102399
 Sr  Ti  O  
   4   4  12
Cartesian
 -0.0000000000000002  2.8353184802103066  1.9200690376025604
  2.8353184802105189  0.0000000000000001  1.9200690376025606
  2.8353184802105189  0.0000000000000000  5.7602071128075014
 -0.0000000000000007  2.8353184802103053  5.7602071128075005
 -0.0000000000000000  0.0000000000000001 -0.0000000000000000
 -0.0000000000000000 -0.0000000000000000  3.8401380752051213
  2.8353184802105189  2.8353184802103066  3.8401380752051213
  2.8353184802105189  2.8353184802103066  0.0000000000000002
  3.9642837998001652  1.1289653195895264  0.0000000000000003
  4.5416716408314679  3.9642837998001972  0.0000000000000004
  3.9642837998001652  4.5416716408309385  3.8401380752051213
  2.8353184802105189  2.8353184802103066  1.9200690376025606
  4.5416716408314679  1.7063531606209219  3.8401380752051213
 -0.0000000000000000 -0.0000000000000000  1.9200690376025604
  1.1289653195895879  3.9642837998001998  3.8401380752051213
  1.7063531606209172  1.1289653195895251  3.8401380752051213
  1.1289653195895804  1.7063531606208591  0.0000000000000001
 -0.0000000000000000 -0.0000000000000000  5.7602071128075005
  1.7063531606209170  4.5416716408309385  0.0000000000000003
  2.8353184802105189  2.8353184802103066  5.7602071128075014
